25	2
9	9	
0	0	0	14	2	3	4	5	6	7	8	9	10	15	17	19	21	24	
626	2	3	1	22	
832	2	3	1	25	
13	2	3	2	13	12	
17	3	3	1	25	
5	2	2	2	12	14	
18	3	3	1	25	
900	3	3	1	25	
283	2	3	3	18	23	11	
9	2	3	2	13	12	
6	2	2	1	18	
730	3	3	1	25	
461	3	3	1	25	
679	2	2	1	25	
15	2	3	2	20	16	
1078	2	2	2	18	22	
10	3	3	1	25	
598	3	2	1	25	
888	2	2	1	25	
19	3	2	1	25	
8	3	3	1	25	
12	2	2	1	25	
14	2	3	1	25	
15	3	3	1	25	
0	0	0	0	